512,283
533,383
382,818
464,833
613,539
593,527
609,458
567,369
681,406
672,347
707,393
628,433
644,520
620,791
885,806
1062,787
850,283
829,258
804,237
681,-134
762,246
611,-38
681,-14
654,321
744,343
699,349
1080,535
1045,670
945,770
977,452
847,-107
844,86
617,605
681,646
1108,545
464,-21
